proyfinal/src/viki/013/andrea/andrea-localstore/experimentInOfficeAgust.take6/worker_5/439164a6-da47-4f7c-bae8-0ac18856bf0e.als.cnf.out
Reading from standard input... Use '--help' for help.
============================[ Problem Statistics ]=============================
|                                                                             |
|  Number of variables:         87638                                         |
|  Number of clauses:          161767                                         |
|  Parse time:                   0.03 s                                       |
|                                                                             |
============================[ Search Statistics ]==============================
| Conflicts |          ORIGINAL         |          LEARNT          | Progress |
|           |    Vars  Clauses Literals |    Limit  Clauses Lit/Cl |          |
===============================================================================
|       100 |   63877   110610   276200 |    40557      100     28 | 27.113 % |
|       250 |   63877   110610   276200 |    44612      250     51 | 27.113 % |
|       475 |   63877   110610   276200 |    49073      475     61 | 27.113 % |
|       812 |   63877   110610   276200 |    53981      812     63 | 27.113 % |
|      1318 |   63877   110610   276200 |    59379     1318     71 | 27.113 % |
|      2077 |   63877   110610   276200 |    65317     2077     83 | 27.113 % |
|      3216 |   63877   110610   276200 |    71849     3216     75 | 27.113 % |
|      4924 |   63877   110610   276200 |    79034     4924     82 | 27.113 % |
|      7486 |   63877   110610   276200 |    86937     7486     89 | 27.113 % |
|     11330 |   54374    80446   201591 |    95631    10809     88 | 37.956 % |
|     17096 |   54342    80386   201447 |   105194    16568     83 | 37.993 % |
===============================================================================
restarts              : 63
conflicts             : 19004          (7941 /sec)
decisions             : 65025          (0.00 % random) (27172 /sec)
propagations          : 24249316       (10132938 /sec)
conflict literals     : 1484303        (44.96 % deleted)
Memory used           : 41.11 MB
CPU time              : 2.39312 s

INDETERMINATE
